
Gurobi 10.0.1 (linux64, Python) logging started Fri Apr  7 10:25:05 2023

Set parameter Username
Set parameter LogFile to value "gurobi.log"
Academic license - for non-commercial use only - expires 2024-03-31
